peakDumbCharging = 25900; 
Machine = anon_enum(16); 
machineSpeed = [3700,3700,3700,3700,3700,3700,3700,3700,3700,3700,3700,3700,3700,3700,3700,3700]; 
machineLoad = [3700,3700,3700,3700,3700,3700,3700,3700,3700,3700,3700,3700,3700,3700,3700,3700]; 
Car = anon_enum(35); 
demandCar = [5440,5240,10440,6840,7760,4600,6920,9600,14160,20280,13600,6680,14240,8200,6720,5960,34280,9640,11480,9520,4440,11600,9200,10920,3360,11600,10000,9640,18360,3720,10240,12600,12200,8360,13280]; 
arrivalCar = [71,71,70,68,67,67,66,66,61,59,59,59,57,57,56,55,55,54,54,51,51,50,49,49,48,45,43,43,42,41,40,39,38,37,32]; 
departureCar = [75,73,74,71,70,69,71,69,67,68,65,63,64,60,62,59,71,59,58,55,54,54,54,54,51,52,50,47,48,44,46,47,47,40,39]; 
